project_id,hv,cc,sloc,percent,path
31723,1094.2777560833251,65,340,0.6837382352941176,/home/senior/senior/Sample_Projects/round_2/31723/runtests.py
31723,2282.586075303013,45,381,0.2968346456692913,/home/senior/senior/Sample_Projects/round_2/31723/scipy/fft/_pocketfft/tests/test_real_transforms.py
31723,4215.934754451847,115,819,0.2761758241758242,/home/senior/senior/Sample_Projects/round_2/31723/scipy/fft/_pocketfft/tests/test_basic.py
31723,673.3359001408127,41,116,0.2166551724137931,/home/senior/senior/Sample_Projects/round_2/31723/scipy/fft/_pocketfft/helper.py
31723,208.89318279048564,20,68,0.1847941176470588,/home/senior/senior/Sample_Projects/round_2/31723/scipy/fft/_pocketfft/realtransforms.py
31723,55.506595772116384,8,44,0.42838636363636357,/home/senior/senior/Sample_Projects/round_2/31723/scipy/fft/_pocketfft/setup.py
31723,969.6614013896058,41,188,0.2673617021276596,/home/senior/senior/Sample_Projects/round_2/31723/scipy/fft/_pocketfft/basic.py
31723,4.754887502163469,2,10,0.0,/home/senior/senior/Sample_Projects/round_2/31723/scipy/fft/setup.py
31723,17602.88108222862,8,208,0.24165384615384614,/home/senior/senior/Sample_Projects/round_2/31723/scipy/special/tests/test_ellip_harm.py
31723,814.6822502903373,1,361,0.3132797783933518,/home/senior/senior/Sample_Projects/round_2/31723/scipy/special/tests/test_data.py
31723,55.350905898196764,5,8,0.0,/home/senior/senior/Sample_Projects/round_2/31723/scipy/special/tests/test_gamma.py
31723,323.53904536672565,2,24,1.3089583333333334,/home/senior/senior/Sample_Projects/round_2/31723/scipy/special/tests/test_sph_harm.py
31723,13.931568569324174,5,31,0.0,/home/senior/senior/Sample_Projects/round_2/31723/scipy/special/tests/test_precompute_utils.py
31723,2375.332441069772,1,82,0.6895975609756098,/home/senior/senior/Sample_Projects/round_2/31723/scipy/special/tests/test_lambertw.py
31723,1726.743005680403,52,311,0.2828360128617363,/home/senior/senior/Sample_Projects/round_2/31723/scipy/special/tests/test_cdflib.py
31723,1311.7286256179843,55,262,0.31175190839694655,/home/senior/senior/Sample_Projects/round_2/31723/scipy/fft/tests/test_numpy.py
31723,779.7095586203245,1,23,1.0926956521739128,/home/senior/senior/Sample_Projects/round_2/31723/scipy/special/tests/test_spence.py
31723,361.89475010096186,1,66,1.237560606060606,/home/senior/senior/Sample_Projects/round_2/31723/scipy/special/tests/test_boxcox.py
31723,41408.379647776426,476,2656,0.3572036897590361,/home/senior/senior/Sample_Projects/round_2/31723/scipy/special/tests/test_basic.py
31723,2505.485976003055,43,328,0.26817682926829267,/home/senior/senior/Sample_Projects/round_2/31723/scipy/special/tests/test_kolmogorov.py
31723,13.931568569324174,1,12,0.0,/home/senior/senior/Sample_Projects/round_2/31723/scipy/special/tests/test_round.py
31723,79.95445336320968,3,19,0.33068421052631575,/home/senior/senior/Sample_Projects/round_2/31723/scipy/special/tests/test_precompute_expn_asy.py
31723,112.58797503894243,8,92,0.1365869565217391,/home/senior/senior/Sample_Projects/round_2/31723/scipy/special/tests/test_sf_error.py
31723,294.41343573651113,8,49,0.7693469387755101,/home/senior/senior/Sample_Projects/round_2/31723/scipy/special/tests/test_trig.py
31723,108.04820237218406,20,308,0.10199675324675322,/home/senior/senior/Sample_Projects/round_2/31723/scipy/special/tests/test_cython_special.py
31723,96.79398751947123,1,75,0.9215066666666666,/home/senior/senior/Sample_Projects/round_2/31723/scipy/special/tests/test_log_softmax.py
31723,55.350905898196764,24,92,0.0,/home/senior/senior/Sample_Projects/round_2/31723/scipy/special/tests/test_bdtr.py
31723,59.794705707972525,1,21,2.0943333333333327,/home/senior/senior/Sample_Projects/round_2/31723/scipy/special/tests/test_sici.py
31723,51.89147427955947,6,37,2.2075405405405406,/home/senior/senior/Sample_Projects/round_2/31723/scipy/special/tests/test_spfun_stats.py
31723,18.094737505048094,6,13,0.0,/home/senior/senior/Sample_Projects/round_2/31723/scipy/special/tests/test_ndtr.py
31723,361.6563306582419,7,93,0.40535483870967737,/home/senior/senior/Sample_Projects/round_2/31723/scipy/special/tests/test_wrightomega.py
31723,489.61738472963737,1,132,0.7139772727272726,/home/senior/senior/Sample_Projects/round_2/31723/scipy/special/tests/test_logsumexp.py
31723,15.509775004326936,1,26,1.2082692307692309,/home/senior/senior/Sample_Projects/round_2/31723/scipy/fft/tests/test_fft_function.py
31723,675.8946136384576,31,227,0.1107136563876652,/home/senior/senior/Sample_Projects/round_2/31723/scipy/fft/tests/test_helper.py
31723,15.509775004326936,4,41,0.0,/home/senior/senior/Sample_Projects/round_2/31723/scipy/fft/tests/mock_backend.py
31723,1415.1413684220165,6,286,1.0764580419580418,/home/senior/senior/Sample_Projects/round_2/31723/scipy/stats/tests/test_kdeoth.py
31723,303.3499014085797,10,86,1.022813953488372,/home/senior/senior/Sample_Projects/round_2/31723/scipy/stats/tests/test_fit.py
31723,239.7487836710217,1,50,0.8796200000000001,/home/senior/senior/Sample_Projects/round_2/31723/scipy/stats/tests/test_discrete_distns.py
31723,1098.0418341231248,20,170,0.9978882352941175,/home/senior/senior/Sample_Projects/round_2/31723/scipy/stats/tests/test_discrete_basic.py
31723,26241.36268651571,376,2901,1.230177180282661,/home/senior/senior/Sample_Projects/round_2/31723/scipy/stats/tests/test_distributions.py
31723,5613.355785767722,162,1150,1.469675652173913,/home/senior/senior/Sample_Projects/round_2/31723/scipy/stats/tests/test_multivariate.py
31723,1046.5533522960486,19,172,0.4748779069767441,/home/senior/senior/Sample_Projects/round_2/31723/scipy/stats/tests/test_rank.py
31723,102.7985828955553,1,99,4.569454545454546,/home/senior/senior/Sample_Projects/round_2/31723/scipy/stats/tests/test_contingency.py
31723,5926.44668401951,143,1157,0.667942091616249,/home/senior/senior/Sample_Projects/round_2/31723/scipy/stats/tests/test_mstats_basic.py
31723,293.24865024551383,2,57,1.4329649122807016,/home/senior/senior/Sample_Projects/round_2/31723/scipy/stats/tests/test_tukeylambda_stats.py
31723,3213.7015616856847,44,406,1.6868152709359605,/home/senior/senior/Sample_Projects/round_2/31723/scipy/stats/tests/test_continuous_basic.py
31723,1145.7751918021268,33,213,1.1209107981220656,/home/senior/senior/Sample_Projects/round_2/31723/scipy/stats/tests/common_tests.py
31723,21427.554165079928,394,3859,0.8873373931070224,/home/senior/senior/Sample_Projects/round_2/31723/scipy/stats/tests/test_stats.py
31723,310.19550008653874,10,40,2.1990499999999997,/home/senior/senior/Sample_Projects/round_2/31723/scipy/stats/contingency.py
31723,2290.0455069216505,50,208,1.0270288461538462,/home/senior/senior/Sample_Projects/round_2/31723/scipy/stats/kde.py
31723,22125.272043374625,198,931,0.7895929108485498,/home/senior/senior/Sample_Projects/round_2/31723/scipy/stats/morestats.py
31723,685.1993090905881,3,33,0.1903939393939394,/home/senior/senior/Sample_Projects/round_2/31723/scipy/stats/vonmises.py
31723,0.0,1,71,0.08849295774647888,/home/senior/senior/Sample_Projects/round_2/31723/scipy/fft/tests/test_backend.py
31723,141.7774500490386,9,58,0.2166551724137931,/home/senior/senior/Sample_Projects/round_2/31723/scipy/fft/tests/test_multithreading.py
31723,64.52932501298082,5,63,0.49865079365079357,/home/senior/senior/Sample_Projects/round_2/31723/scipy/fft/tests/test_real_transforms.py
31723,4.754887502163469,2,9,0.0,/home/senior/senior/Sample_Projects/round_2/31723/scipy/_build_utils/setup.py
31723,53.77443751081735,8,36,0.698111111111111,/home/senior/senior/Sample_Projects/round_2/31723/scipy/_build_utils/compiler_helper.py
31723,134.8862737612612,30,127,0.4947244094488189,/home/senior/senior/Sample_Projects/round_2/31723/scipy/_build_utils/system_info.py
31723,417.82238611206157,32,105,0.4787047619047619,/home/senior/senior/Sample_Projects/round_2/31723/scipy/special/tests/test_gammainc.py
31723,15.509775004326936,2,12,1.5707499999999999,/home/senior/senior/Sample_Projects/round_2/31723/scipy/_build_utils/tests/test_scipy_version.py
31723,26423.513272443484,202,1142,0.385122591943958,/home/senior/senior/Sample_Projects/round_2/31723/scipy/stats/mstats_basic.py
31723,39759.63054245151,433,1806,1.0819562569213732,/home/senior/senior/Sample_Projects/round_2/31723/scipy/stats/stats.py
31723,3444.9189785452013,13,179,0.35100558659217873,/home/senior/senior/Sample_Projects/round_2/31723/scipy/stats/mstats_extras.py
31723,0.0,1,4,3.1414999999999997,/home/senior/senior/Sample_Projects/round_2/31723/scipy/stats/mstats.py
31723,4.754887502163469,2,24,0.7853749999999999,/home/senior/senior/Sample_Projects/round_2/31723/scipy/stats/setup.py
31723,9.509775004326938,1,10,5.6547,/home/senior/senior/Sample_Projects/round_2/31723/scipy/stats/distributions.py
31723,0.0,3,41,0.1532439024390244,/home/senior/senior/Sample_Projects/round_2/31723/scipy/_build_utils/tests/test_circular_imports.py
31723,147.14866228501225,1,30,0.41886666666666666,/home/senior/senior/Sample_Projects/round_2/31723/scipy/special/tests/test_owens_t.py
31723,68.11428751370197,7,48,0.5235833333333332,/home/senior/senior/Sample_Projects/round_2/31723/scipy/special/tests/test_faddeeva.py
31723,15.849625007211563,2,11,3.4270909090909085,/home/senior/senior/Sample_Projects/round_2/31723/scipy/special/tests/test_pcf.py
31723,173.9178331268546,19,54,0.8144629629629628,/home/senior/senior/Sample_Projects/round_2/31723/scipy/fftpack/tests/gen_fftw_ref.py
31723,3672.769636810769,99,688,0.3013648255813953,/home/senior/senior/Sample_Projects/round_2/31723/scipy/fftpack/tests/test_basic.py
31723,6096.068251565524,78,315,0.07978412698412697,/home/senior/senior/Sample_Projects/round_2/31723/scipy/fftpack/tests/test_pseudo_diffs.py
31723,24.0,5,16,0.7853749999999999,/home/senior/senior/Sample_Projects/round_2/31723/scipy/fftpack/tests/test_import.py
31723,401.34884567735673,6,42,0.1495952380952381,/home/senior/senior/Sample_Projects/round_2/31723/scipy/fftpack/tests/test_helper.py
31723,0.0,1,6,0.0,/home/senior/senior/Sample_Projects/round_2/31723/scipy/fftpack/tests/gendata.py
31723,117.61261085748234,5,21,0.2991904761904762,/home/senior/senior/Sample_Projects/round_2/31723/scipy/fftpack/helper.py
31723,2337.084257696501,46,228,0.027557017543859648,/home/senior/senior/Sample_Projects/round_2/31723/scipy/fftpack/pseudo_diffs.py
31723,0.0,1,29,0.0,/home/senior/senior/Sample_Projects/round_2/31723/scipy/fftpack/realtransforms.py
31723,4.754887502163469,2,10,0.6283,/home/senior/senior/Sample_Projects/round_2/31723/scipy/fftpack/setup.py
31723,0.0,1,23,0.2731739130434782,/home/senior/senior/Sample_Projects/round_2/31723/scipy/fftpack/basic.py
31723,5161.874519334565,61,446,0.5071479820627802,/home/senior/senior/Sample_Projects/round_2/31723/scipy/interpolate/tests/test_fitpack2.py
31723,4030.2414537985856,66,351,0.698111111111111,/home/senior/senior/Sample_Projects/round_2/31723/scipy/interpolate/tests/test_fitpack.py
31723,2616.832365959509,31,270,0.8610037037037037,/home/senior/senior/Sample_Projects/round_2/31723/scipy/interpolate/tests/test_interpnd.py
31723,366.2973245700245,23,147,0.2564489795918367,/home/senior/senior/Sample_Projects/round_2/31723/scipy/interpolate/tests/test_ndgriddata.py
31723,3578.0271704627617,103,544,0.3233897058823529,/home/senior/senior/Sample_Projects/round_2/31723/scipy/interpolate/tests/test_polyint.py
31723,4.754887502163469,2,12,0.0,/home/senior/senior/Sample_Projects/round_2/31723/scipy/interpolate/tests/test_regression.py
31723,449.9216969858887,34,126,0.24932539682539678,/home/senior/senior/Sample_Projects/round_2/31723/scipy/io/tests/test_wavfile.py
31723,3126.378525565284,60,214,0.20551869158878502,/home/senior/senior/Sample_Projects/round_2/31723/scipy/interpolate/polyint.py
31723,5440.631706211698,136,555,0.32830090090090086,/home/senior/senior/Sample_Projects/round_2/31723/scipy/interpolate/fitpack2.py
31723,192.7180284437848,14,58,0.7582931034482758,/home/senior/senior/Sample_Projects/round_2/31723/scipy/interpolate/ndgriddata.py
31723,25.26619429851844,2,31,0.0,/home/senior/senior/Sample_Projects/round_2/31723/scipy/interpolate/setup.py
31723,351.03493604627346,2,20,1.2566,/home/senior/senior/Sample_Projects/round_2/31723/scipy/interpolate/interpnd_info.py
31723,2680.2826865509346,134,612,0.3182565359477124,/home/senior/senior/Sample_Projects/round_2/31723/scipy/fftpack/tests/test_real_transforms.py
31723,16504.08595641842,311,1068,0.9236245318352059,/home/senior/senior/Sample_Projects/round_2/31723/scipy/interpolate/interpolate.py
31723,140.2304206377674,13,81,0.5429753086419752,/home/senior/senior/Sample_Projects/round_2/31723/scipy/interpolate/fitpack.py
31723,1247.3835271733672,6,156,1.1679935897435898,/home/senior/senior/Sample_Projects/round_2/31723/scipy/interpolate/tests/test_rbf.py
31723,22182.62075837828,315,2106,0.5698257359924026,/home/senior/senior/Sample_Projects/round_2/31723/scipy/interpolate/tests/test_interpolate.py
31723,9357.348286999957,125,855,1.0802350877192983,/home/senior/senior/Sample_Projects/round_2/31723/scipy/interpolate/tests/test_bsplines.py
31723,28.529325012980813,6,52,0.0,/home/senior/senior/Sample_Projects/round_2/31723/scipy/interpolate/tests/test_gil.py
31723,1058.8757488851315,3,67,0.9377611940298506,/home/senior/senior/Sample_Projects/round_2/31723/scipy/interpolate/tests/test_pade.py
31723,800.5801550184921,41,113,0.9452300884955752,/home/senior/senior/Sample_Projects/round_2/31723/scipy/interpolate/rbf.py
31723,128.0,4,98,0.7693469387755101,/home/senior/senior/Sample_Projects/round_2/31723/scipy/stats/tests/test_mstats_extras.py
31723,0.0,1,8,0.7853749999999999,/home/senior/senior/Sample_Projects/round_2/31723/scipy/special/basic.py
31723,463.9792043087891,6,134,0.5157686567164179,/home/senior/senior/Sample_Projects/round_2/31723/scipy/special/setup.py
31723,330.61943334694587,3,45,0.698111111111111,/home/senior/senior/Sample_Projects/round_2/31723/scipy/special/tests/test_loggamma.py
31723,124.0,17,81,1.0083827160493828,/home/senior/senior/Sample_Projects/round_2/31723/scipy/special/tests/test_hypergeometric.py
31723,10.0,4,52,0.3624807692307692,/home/senior/senior/Sample_Projects/round_2/31723/scipy/special/tests/test_erfinv.py
31723,137.6075250475963,11,67,0.0,/home/senior/senior/Sample_Projects/round_2/31723/scipy/special/tests/test_logit.py
31723,776.9265912207381,1,25,1.7592400000000001,/home/senior/senior/Sample_Projects/round_2/31723/scipy/special/tests/test_digamma.py
31723,361.28526732617695,4,80,1.2566,/home/senior/senior/Sample_Projects/round_2/31723/scipy/special/tests/test_precompute_gammainc.py
31723,5200.797183269544,19,604,0.22885099337748344,/home/senior/senior/Sample_Projects/round_2/31723/scipy/special/tests/test_orthogonal.py
31723,232.7928234072743,10,60,0.20943333333333333,/home/senior/senior/Sample_Projects/round_2/31723/scipy/special/tests/test_exponential_integrals.py
31723,1051.8815061722428,48,209,0.33068421052631575,/home/senior/senior/Sample_Projects/round_2/31723/scipy/special/tests/test_orthogonal_eval.py
31723,13869.44273477312,192,1505,0.7890279069767442,/home/senior/senior/Sample_Projects/round_2/31723/scipy/special/tests/test_mpmath.py
31723,388.24685444007076,8,34,0.7391764705882352,/home/senior/senior/Sample_Projects/round_2/31723/scipy/special/tests/test_zeta.py
31723,38.053747805010275,6,46,0.2731739130434782,/home/senior/senior/Sample_Projects/round_2/31723/scipy/special/tests/test_nan_inputs.py
31723,5095.884482686541,49,254,1.4841732283464566,/home/senior/senior/Sample_Projects/round_2/31723/scipy/special/tests/test_spherical_bessel.py
31723,28.43458750793272,13,37,0.0,/home/senior/senior/Sample_Projects/round_2/31723/scipy/special/tests/test_pdtr.py
31723,204.32967235008786,13,174,0.6138563218390805,/home/senior/senior/Sample_Projects/round_2/31723/scipy/special/utils/convert.py
31723,164.51539013493823,13,39,1.772128205128205,/home/senior/senior/Sample_Projects/round_2/31723/scipy/special/utils/datafunc.py
31723,191.36873322873222,17,44,0.5711818181818182,/home/senior/senior/Sample_Projects/round_2/31723/scipy/special/utils/makenpz.py
31723,0.0,1,6,0.0,/home/senior/senior/Sample_Projects/round_2/31723/scipy/special/sf_error.py
31723,25823.70643886285,99,614,0.8390977198697068,/home/senior/senior/Sample_Projects/round_2/31723/scipy/special/orthogonal.py
31723,0.0,1,7128,0.007051627384960719,/home/senior/senior/Sample_Projects/round_2/31723/scipy/special/add_newdocs.py
31723,267.35288832599804,5,14,13.014785714285715,/home/senior/senior/Sample_Projects/round_2/31723/scipy/special/spfun_stats.py
31723,368.9860033197427,7,49,0.5128979591836734,/home/senior/senior/Sample_Projects/round_2/31723/scipy/special/_precompute/lambertw.py
31723,4.754887502163469,2,8,0.0,/home/senior/senior/Sample_Projects/round_2/31723/scipy/special/_precompute/setup.py
31723,0.0,1,4,0.0,/home/senior/senior/Sample_Projects/round_2/31723/scipy/special/lambertw.py
31723,209.21505009519265,7,34,0.0,/home/senior/senior/Sample_Projects/round_2/31723/scipy/special/_precompute/loggamma.py
31723,92.0,6,24,0.5235833333333332,/home/senior/senior/Sample_Projects/round_2/31723/scipy/special/_precompute/utils.py
31723,31.699250014423125,5,21,0.0,/home/senior/senior/Sample_Projects/round_2/31723/scipy/special/_precompute/zetac.py
31723,927.4844080228455,14,81,0.0,/home/senior/senior/Sample_Projects/round_2/31723/scipy/special/_precompute/gammainc_asy.py
31723,188.0175887256437,5,30,0.0,/home/senior/senior/Sample_Projects/round_2/31723/scipy/special/_precompute/wrightomega.py
31723,300.0,3,62,0.0,/home/senior/senior/Sample_Projects/round_2/31723/scipy/special/_precompute/struve_convergence.py
31723,165.05865002596164,8,39,0.32220512820512814,/home/senior/senior/Sample_Projects/round_2/31723/scipy/special/_precompute/expn_asy.py
31723,215.4932375338944,9,65,0.9666153846153845,/home/senior/senior/Sample_Projects/round_2/31723/scipy/special/_precompute/gammainc_data.py
31723,228.9358278562653,11,61,0.618,/home/senior/senior/Sample_Projects/round_2/31723/scipy/io/tests/test_paths.py
31723,100.07820003461549,45,357,0.15839495798319325,/home/senior/senior/Sample_Projects/round_2/31723/scipy/stats/tests/test_binned_statistic.py
31723,216.9089471324135,23,102,0.5543823529411764,/home/senior/senior/Sample_Projects/round_2/31723/scipy/optimize/cobyla.py
31723,156.91128757139447,16,100,1.44509,/home/senior/senior/Sample_Projects/round_2/31723/scipy/linalg/blas.py
31723,53.77443751081735,8,33,2.475121212121212,/home/senior/senior/Sample_Projects/round_2/31723/scipy/linalg/flinalg.py
31723,4773.937350761422,146,503,0.9493200795228627,/home/senior/senior/Sample_Projects/round_2/31723/scipy/linalg/decomp.py
31723,4.754887502163469,1,5,0.0,/home/senior/senior/Sample_Projects/round_2/31723/scipy/linalg/linalg_version.py
31723,151.30376252379818,12,76,0.9093815789473685,/home/senior/senior/Sample_Projects/round_2/31723/scipy/linalg/lapack.py
31723,431.2950978723465,21,86,0.3652906976744186,/home/senior/senior/Sample_Projects/round_2/31723/scipy/linalg/decomp_cholesky.py
31723,2813.9147322513604,58,247,0.6359311740890689,/home/senior/senior/Sample_Projects/round_2/31723/scipy/linalg/special_matrices.py
31723,1442.112960630983,33,117,0.1074017094017094,/home/senior/senior/Sample_Projects/round_2/31723/scipy/linalg/decomp_schur.py
31723,269.63553058626803,22,43,1.4611627906976743,/home/senior/senior/Sample_Projects/round_2/31723/scipy/linalg/misc.py
31723,160.4736875252405,7,91,0.6213956043956044,/home/senior/senior/Sample_Projects/round_2/31723/scipy/linalg/setup.py
31723,2000.4224414353057,29,150,1.214713333333333,/home/senior/senior/Sample_Projects/round_2/31723/scipy/linalg/matfuncs.py
31723,1085.184511931066,44,163,0.2312760736196319,/home/senior/senior/Sample_Projects/round_2/31723/scipy/linalg/decomp_qr.py
31723,4318.051490673134,121,474,0.954379746835443,/home/senior/senior/Sample_Projects/round_2/31723/scipy/linalg/basic.py
31723,279.17595007788486,16,55,0.11423636363636362,/home/senior/senior/Sample_Projects/round_2/31723/scipy/linalg/decomp_lu.py
31723,21055.932175057456,186,1344,0.8040744047619047,/home/senior/senior/Sample_Projects/round_2/31723/scipy/linalg/tests/test_lapack.py
31723,461.3156600916927,47,196,1.0578520408163263,/home/senior/senior/Sample_Projects/round_2/31723/scipy/linalg/interpolative.py
31723,6914.737755254574,324,1632,0.639079656862745,/home/senior/senior/Sample_Projects/round_2/31723/scipy/spatial/tests/test_distance.py
31723,473.65160044497526,8,73,1.9795753424657534,/home/senior/senior/Sample_Projects/round_2/31723/scipy/spatial/tests/test__procrustes.py
31723,34.86917501586544,5,45,0.9773555555555555,/home/senior/senior/Sample_Projects/round_2/31723/scipy/spatial/tests/test__plotutils.py
31723,1305.2165681852605,39,202,1.1819504950495048,/home/senior/senior/Sample_Projects/round_2/31723/scipy/spatial/tests/test_spherical_voronoi.py
31723,118.94197037642039,15,107,2.05518691588785,/home/senior/senior/Sample_Projects/round_2/31723/scipy/spatial/tests/test_hausdorff.py
31723,5239.62541421075,159,1116,0.4503942652329748,/home/senior/senior/Sample_Projects/round_2/31723/scipy/spatial/tests/test_kdtree.py
31723,5309.61078119272,116,799,1.116628285356696,/home/senior/senior/Sample_Projects/round_2/31723/scipy/spatial/tests/test_qhull.py
31723,535.8413335052627,1,117,0.37590598290598287,/home/senior/senior/Sample_Projects/round_2/31723/scipy/spatial/transform/tests/test_rotation_spline.py
31723,714.7337620686308,19,110,0.0,/home/senior/senior/Sample_Projects/round_2/31723/scipy/spatial/transform/tests/test_rotation_groups.py
31723,3320.07265114409,24,828,0.2731739130434782,/home/senior/senior/Sample_Projects/round_2/31723/scipy/spatial/transform/tests/test_rotation.py
31723,8924.81250360578,141,590,0.6921949152542372,/home/senior/senior/Sample_Projects/round_2/31723/scipy/spatial/transform/rotation.py
31723,0.0,1,6,0.0,/home/senior/senior/Sample_Projects/round_2/31723/scipy/spatial/transform/setup.py
31723,3887.3935298005867,81,467,0.5381584582441112,/home/senior/senior/Sample_Projects/round_2/31723/scipy/spatial/kdtree.py
31723,101.95026032264605,6,64,0.490859375,/home/senior/senior/Sample_Projects/round_2/31723/scipy/spatial/setup.py
31723,647.503592418486,19,99,0.7615757575757576,/home/senior/senior/Sample_Projects/round_2/31723/scipy/linalg/decomp_svd.py
31723,3474.7164581519582,63,521,0.24119001919385794,/home/senior/senior/Sample_Projects/round_2/31723/scipy/linalg/tests/test_special_matrices.py
31723,4094.052293670966,117,664,0.8989231927710843,/home/senior/senior/Sample_Projects/round_2/31723/scipy/linalg/tests/test_matfuncs.py
31723,322.0227601751469,8,82,1.0727073170731707,/home/senior/senior/Sample_Projects/round_2/31723/scipy/linalg/tests/test_solve_toeplitz.py
31723,399.03078026987646,26,145,0.6066344827586206,/home/senior/senior/Sample_Projects/round_2/31723/tools/authors.py
31723,496.1788100311156,36,172,0.32876162790697677,/home/senior/senior/Sample_Projects/round_2/31723/tools/gh_lists.py
31723,99.40434618240934,12,44,0.9995681818181817,/home/senior/senior/Sample_Projects/round_2/31723/tools/validate_runtests_log.py
31723,1000.9143001096157,49,229,0.2469301310043668,/home/senior/senior/Sample_Projects/round_2/31723/tools/openblas_support.py
31723,502.0857006267241,47,209,0.7214928229665071,/home/senior/senior/Sample_Projects/round_2/31723/tools/cythonize.py
31723,3433.694644044581,157,655,0.700242748091603,/home/senior/senior/Sample_Projects/round_2/31723/tools/refguide_check.py
31723,2953.305952795067,27,301,0.2713588039867109,/home/senior/senior/Sample_Projects/round_2/31723/scipy/odr/tests/test_odr.py
31723,792.2975435366423,3,100,0.37698,/home/senior/senior/Sample_Projects/round_2/31723/scipy/odr/models.py
31723,0.0,1,22,0.0,/home/senior/senior/Sample_Projects/round_2/31723/scipy/odr/add_newdocs.py
31723,39.863137138648355,4,35,0.0,/home/senior/senior/Sample_Projects/round_2/31723/scipy/odr/setup.py
31723,5526.363805162072,126,425,0.47307294117647053,/home/senior/senior/Sample_Projects/round_2/31723/scipy/odr/odrpack.py
31723,4.0,1,29,0.0,/home/senior/senior/Sample_Projects/round_2/31723/scipy/constants/tests/test_constants.py
31723,58.60335893412778,2,38,0.16534210526315787,/home/senior/senior/Sample_Projects/round_2/31723/scipy/constants/tests/test_codata.py
31723,2010.7554941178391,9,148,1.443391891891892,/home/senior/senior/Sample_Projects/round_2/31723/scipy/constants/constants.py
31723,452.3819625584137,23,1527,0.06583366077275704,/home/senior/senior/Sample_Projects/round_2/31723/scipy/constants/codata.py
31723,4.754887502163469,2,9,0.0,/home/senior/senior/Sample_Projects/round_2/31723/scipy/constants/setup.py
31723,0.0,5,12,0.0,/home/senior/senior/Sample_Projects/round_2/31723/scipy/linalg/tests/test_cython_lapack.py
31723,4690.196294649426,314,1308,0.5812255351681956,/home/senior/senior/Sample_Projects/round_2/31723/scipy/linalg/tests/test_decomp_update.py
31723,26423.94109773986,339,2170,0.720952534562212,/home/senior/senior/Sample_Projects/round_2/31723/scipy/linalg/tests/test_decomp.py
31723,77.66179398375645,11,41,0.3064878048780488,/home/senior/senior/Sample_Projects/round_2/31723/scipy/linalg/tests/test_build.py
31723,222.9388339674094,21,90,0.6283,/home/senior/senior/Sample_Projects/round_2/31723/scipy/linalg/tests/test_sketches.py
31723,1080.9329053993822,53,355,0.6548478873239436,/home/senior/senior/Sample_Projects/round_2/31723/scipy/linalg/tests/test_fblas.py
31723,716.661769750386,10,124,2.178782258064516,/home/senior/senior/Sample_Projects/round_2/31723/scipy/linalg/tests/test_procrustes.py
31723,9432.106416533405,172,802,0.6188990024937655,/home/senior/senior/Sample_Projects/round_2/31723/scipy/spatial/distance.py
31723,368.2407707131671,22,161,0.39024844720496893,/home/senior/senior/Sample_Projects/round_2/31723/scipy/linalg/tests/test_decomp_cholesky.py
31723,768.091324039907,14,199,1.4523517587939698,/home/senior/senior/Sample_Projects/round_2/31723/scipy/linalg/tests/test_interpolative.py
31723,11147.338398012065,224,1237,0.8025173807599029,/home/senior/senior/Sample_Projects/round_2/31723/scipy/linalg/tests/test_basic.py
31723,1478.3804766499165,8,102,0.5543823529411764,/home/senior/senior/Sample_Projects/round_2/31723/scipy/linalg/tests/test_decomp_ldl.py
31723,520.3223742172194,7,80,0.0,/home/senior/senior/Sample_Projects/round_2/31723/scipy/linalg/tests/test_cython_blas.py
31723,8736.403511622597,181,849,0.39222497055359246,/home/senior/senior/Sample_Projects/round_2/31723/scipy/linalg/tests/test_blas.py
31723,199.68581616031315,5,67,0.7502089552238805,/home/senior/senior/Sample_Projects/round_2/31723/scipy/linalg/tests/test_decomp_polar.py
31723,7999.801941728421,14,691,0.9183545586107091,/home/senior/senior/Sample_Projects/round_2/31723/scipy/linalg/tests/test_solvers.py
31723,3743.3257567382275,65,336,0.6357797619047618,/home/senior/senior/Sample_Projects/round_2/31723/scipy/optimize/_lsq/trf.py
31723,1030.377475240866,16,126,0.44878571428571423,/home/senior/senior/Sample_Projects/round_2/31723/scipy/optimize/_lsq/bvls.py
31723,588.2643049361842,32,101,0.06220792079207921,/home/senior/senior/Sample_Projects/round_2/31723/scipy/optimize/_lsq/lsq_linear.py
31723,1834.86469756649,55,314,0.9804681528662419,/home/senior/senior/Sample_Projects/round_2/31723/scipy/optimize/tests/test__basinhopping.py
31723,47.548875021634686,3,76,0.7440394736842104,/home/senior/senior/Sample_Projects/round_2/31723/scipy/optimize/tests/test_linear_assignment.py
31723,1457.745999404508,18,205,1.6856829268292683,/home/senior/senior/Sample_Projects/round_2/31723/scipy/optimize/tests/test_trustregion_exact.py
31723,633.0961354900354,9,80,0.5497624999999999,/home/senior/senior/Sample_Projects/round_2/31723/scipy/optimize/tests/test_cobyla.py
31723,10855.916108516354,162,1191,0.8018606213266162,/home/senior/senior/Sample_Projects/round_2/31723/scipy/optimize/tests/test_optimize.py
31723,4.754887502163469,2,20,0.0,/home/senior/senior/Sample_Projects/round_2/31723/scipy/optimize/_trlib/setup.py
31723,9.509775004326938,1,7,0.8975714285714285,/home/senior/senior/Sample_Projects/round_2/31723/scipy/optimize/_trustregion_constr/tests/test_report.py
31723,247.75703075150622,28,176,0.4997840909090909,/home/senior/senior/Sample_Projects/round_2/31723/scipy/optimize/_trustregion_constr/tests/test_projections.py
31723,1235.901015299418,9,220,0.17135454545454543,/home/senior/senior/Sample_Projects/round_2/31723/scipy/optimize/_trustregion_constr/tests/test_canonical_constraint.py
31723,2448.124583463536,24,503,0.8244095427435388,/home/senior/senior/Sample_Projects/round_2/31723/scipy/optimize/_trustregion_constr/tests/test_qp_subproblem.py
31723,2216.3698949119453,47,254,2.176787401574803,/home/senior/senior/Sample_Projects/round_2/31723/scipy/optimize/_trustregion_constr/qp_subproblem.py
31723,843.2000503836551,31,197,1.722243654822335,/home/senior/senior/Sample_Projects/round_2/31723/scipy/optimize/_trustregion_constr/tr_interior_point.py
31723,989.6935774638052,19,185,2.6150864864864865,/home/senior/senior/Sample_Projects/round_2/31723/scipy/optimize/_trustregion_constr/projections.py
31723,1691.4043826789668,35,272,0.0,/home/senior/senior/Sample_Projects/round_2/31723/scipy/optimize/_trustregion_constr/canonical_constraint.py
31723,1343.9866059638268,17,128,2.55246875,/home/senior/senior/Sample_Projects/round_2/31723/scipy/optimize/_trustregion_constr/equality_constrained_sqp.py
31723,4.754887502163469,2,9,0.0,/home/senior/senior/Sample_Projects/round_2/31723/scipy/optimize/_trustregion_constr/setup.py
31723,1071.0066244662835,53,292,0.4088253424657534,/home/senior/senior/Sample_Projects/round_2/31723/scipy/optimize/_trustregion_constr/minimize_trustregion_constr.py
31723,2380.326210134761,49,256,1.3744062499999998,/home/senior/senior/Sample_Projects/round_2/31723/scipy/optimize/slsqp.py
31723,2913.3817519265735,69,367,0.4793569482288828,/home/senior/senior/Sample_Projects/round_2/31723/scipy/optimize/minpack.py
31723,5664.030096829223,191,779,0.6774993581514762,/home/senior/senior/Sample_Projects/round_2/31723/scipy/optimize/nonlin.py
31723,105.41561814669026,11,89,0.14119101123595507,/home/senior/senior/Sample_Projects/round_2/31723/scipy/optimize/setup.py
31723,7973.011621524477,130,532,0.8149003759398497,/home/senior/senior/Sample_Projects/round_2/31723/scipy/optimize/zeros.py
31723,7640.616625641829,70,373,0.9264477211796245,/home/senior/senior/Sample_Projects/round_2/31723/scipy/optimize/linesearch.py
31723,82.0447025077789,14,78,0.48330769230769227,/home/senior/senior/Sample_Projects/round_2/31723/scipy/optimize/tests/test_trustregion.py
31723,164.51539013493823,6,25,0.0,/home/senior/senior/Sample_Projects/round_2/31723/scipy/optimize/nnls.py
31723,1296.938400415386,34,172,1.315046511627907,/home/senior/senior/Sample_Projects/round_2/31723/scipy/optimize/lbfgsb.py
31723,480.3544416004609,16,150,1.717353333333333,/home/senior/senior/Sample_Projects/round_2/31723/scipy/optimize/tnc.py
31723,1441.1691730277814,31,158,0.7953164556962025,/home/senior/senior/Sample_Projects/round_2/31723/scipy/optimize/_shgo_lib/sobol_seq.py
31723,1685.7197968882253,110,394,1.5308832487309645,/home/senior/senior/Sample_Projects/round_2/31723/scipy/optimize/_shgo_lib/triangulation.py
31723,70.32403072095333,2,14,2.692714285714285,/home/senior/senior/Sample_Projects/round_2/31723/scipy/optimize/tnc/example.py
31723,53.77443751081735,7,40,0.471225,/home/senior/senior/Sample_Projects/round_2/31723/scipy/optimize/_trustregion_constr/report.py
31723,22462.004026129656,312,1525,0.51912,/home/senior/senior/Sample_Projects/round_2/31723/scipy/optimize/optimize.py
31723,4253.3191511451005,189,1318,1.1536312594840668,/home/senior/senior/Sample_Projects/round_2/31723/scipy/stats/tests/test_morestats.py
31723,512.9283016944967,12,139,0.04520143884892087,/home/senior/senior/Sample_Projects/round_2/31723/scipy/optimize/tests/test_constraints.py
31723,34.86917501586544,3,21,0.8975714285714285,/home/senior/senior/Sample_Projects/round_2/31723/scipy/optimize/tests/test_nnls.py
31723,3400.454194810277,82,321,0.17615887850467288,/home/senior/senior/Sample_Projects/round_2/31723/scipy/optimize/_lsq/least_squares.py
31723,1657.303487866891,29,161,0.2731739130434782,/home/senior/senior/Sample_Projects/round_2/31723/scipy/optimize/_lsq/trf_linear.py
31723,1422.449534130642,26,170,0.6652588235294117,/home/senior/senior/Sample_Projects/round_2/31723/scipy/optimize/_lsq/dogbox.py
31723,6165.366682917647,54,332,0.2649457831325301,/home/senior/senior/Sample_Projects/round_2/31723/scipy/optimize/_lsq/common.py
31723,4.754887502163469,2,10,0.0,/home/senior/senior/Sample_Projects/round_2/31723/scipy/optimize/_lsq/setup.py
31723,4487.666012172341,93,483,0.364231884057971,/home/senior/senior/Sample_Projects/round_2/31723/scipy/optimize/tests/test__shgo.py
31723,14167.808271680842,94,859,0.9874330616996507,/home/senior/senior/Sample_Projects/round_2/31723/scipy/optimize/tests/test__differential_evolution.py
31723,5442.942103034009,83,568,0.4756496478873239,/home/senior/senior/Sample_Projects/round_2/31723/scipy/optimize/tests/test_least_squares.py
31723,569.1207823616453,7,48,0.7853749999999999,/home/senior/senior/Sample_Projects/round_2/31723/scipy/optimize/tests/test__root.py
31723,6662.355549723393,87,605,0.7269586776859505,/home/senior/senior/Sample_Projects/round_2/31723/scipy/optimize/tests/test_minpack.py
31723,2088.247335325077,10,225,0.027924444444444443,/home/senior/senior/Sample_Projects/round_2/31723/scipy/optimize/tests/test_lsq_common.py
31723,33.0,3,30,0.0,/home/senior/senior/Sample_Projects/round_2/31723/scipy/optimize/tests/test_lbfgsb_hessinv.py
31723,77.66179398375645,3,47,3.074659574468085,/home/senior/senior/Sample_Projects/round_2/31723/scipy/optimize/tests/test_cython_optimize.py
31723,328.08723764927936,23,200,0.18849,/home/senior/senior/Sample_Projects/round_2/31723/scipy/optimize/tests/test__remove_redundancy.py
31723,4636.704284953636,43,596,0.12650335570469798,/home/senior/senior/Sample_Projects/round_2/31723/scipy/optimize/tests/test_differentiable_functions.py
31723,5757.12975202623,92,523,1.1052313575525812,/home/senior/senior/Sample_Projects/round_2/31723/scipy/optimize/tests/test_zeros.py
31723,2214.4659641350454,25,174,0.722183908045977,/home/senior/senior/Sample_Projects/round_2/31723/scipy/optimize/tests/test_hessian_update_strategy.py
31723,2477.57223126557,40,214,0.6165560747663551,/home/senior/senior/Sample_Projects/round_2/31723/scipy/optimize/tests/test_linesearch.py
31723,8881.299338622457,158,1270,0.9894488188976378,/home/senior/senior/Sample_Projects/round_2/31723/scipy/optimize/tests/test_linprog.py
31723,848.0954392714928,1,205,0.030648780487804877,/home/senior/senior/Sample_Projects/round_2/31723/scipy/optimize/tests/test__linprog_clean_inputs.py
31723,2792.344522949137,20,212,0.6520094339622642,/home/senior/senior/Sample_Projects/round_2/31723/scipy/optimize/tests/test_constraint_conversion.py
31723,279.8104562687687,7,94,0.0668404255319149,/home/senior/senior/Sample_Projects/round_2/31723/scipy/optimize/tests/test_lbfgsb_setulb.py
31723,527.2178972476488,19,128,0.09817187499999999,/home/senior/senior/Sample_Projects/round_2/31723/scipy/optimize/tests/test_lsq_linear.py
31723,770.9958538831753,6,114,1.1573947368421051,/home/senior/senior/Sample_Projects/round_2/31723/scipy/optimize/tests/test_trustregion_krylov.py
31723,101.95026032264605,4,27,0.698111111111111,/home/senior/senior/Sample_Projects/round_2/31723/scipy/optimize/tests/test_regression.py
31723,4081.774635917452,38,226,0.16680530973451327,/home/senior/senior/Sample_Projects/round_2/31723/scipy/optimize/tests/test_tnc.py
31723,900.2587004096167,42,193,1.0091865284974093,/home/senior/senior/Sample_Projects/round_2/31723/scipy/optimize/tests/test__dual_annealing.py
31723,3661.263376665871,4,147,1.1112789115646258,/home/senior/senior/Sample_Projects/round_2/31723/scipy/optimize/tests/test__spectral.py
31723,7119.12506480546,82,452,0.2224070796460177,/home/senior/senior/Sample_Projects/round_2/31723/scipy/optimize/tests/test_minimize_constrained.py
31723,4035.720979558517,68,522,0.060181992337164744,/home/senior/senior/Sample_Projects/round_2/31723/scipy/optimize/tests/test__numdiff.py
31723,2548.4756969625014,65,299,0.42026755852842806,/home/senior/senior/Sample_Projects/round_2/31723/scipy/optimize/tests/test_nonlin.py
31723,3872.5666713198907,55,375,0.9550159999999999,/home/senior/senior/Sample_Projects/round_2/31723/scipy/optimize/tests/test_slsqp.py
31723,860.630323231835,35,150,0.33509333333333335,/home/senior/senior/Sample_Projects/round_2/31723/tools/suppress_output.py
31723,1324.9110939382706,60,313,0.5419840255591053,/home/senior/senior/Sample_Projects/round_2/31723/scipy/io/tests/test_idl.py
31723,177.19905189038187,10,382,1.0690968586387435,/home/senior/senior/Sample_Projects/round_2/31723/scipy/io/tests/test_netcdf.py
31723,4693.061704329678,54,303,0.24883168316831683,/home/senior/senior/Sample_Projects/round_2/31723/scipy/integrate/_ivp/radau.py
31723,866.5754382432025,1,168,0.03739880952380952,/home/senior/senior/Sample_Projects/round_2/31723/scipy/integrate/_ivp/dop853_coefficients.py
31723,331.00215003682797,28,110,0.11423636363636362,/home/senior/senior/Sample_Projects/round_2/31723/scipy/integrate/_ivp/base.py
31723,1261.412276799542,55,191,0.42763874345549735,/home/senior/senior/Sample_Projects/round_2/31723/scipy/integrate/_ivp/ivp.py
31723,3083.780754136605,41,229,0.2469301310043668,/home/senior/senior/Sample_Projects/round_2/31723/scipy/integrate/_ivp/common.py
31723,3993.354435930687,30,240,0.1308958333333333,/home/senior/senior/Sample_Projects/round_2/31723/scipy/integrate/_ivp/rk.py
31723,281.3104817439633,13,67,0.5626567164179104,/home/senior/senior/Sample_Projects/round_2/31723/scipy/integrate/_ivp/lsoda.py
31723,277.43499338166504,9,51,0.3695882352941176,/home/senior/senior/Sample_Projects/round_2/31723/scipy/integrate/odepack.py
31723,6112.728280700393,64,374,0.7895748663101604,/home/senior/senior/Sample_Projects/round_2/31723/scipy/integrate/quadrature.py
31723,2412.5731315107073,79,255,0.6898980392156863,/home/senior/senior/Sample_Projects/round_2/31723/scipy/integrate/quadpack.py
31723,150.11730005192322,4,73,0.8606849315068492,/home/senior/senior/Sample_Projects/round_2/31723/scipy/integrate/setup.py
31723,11.60964047443681,2,13,0.48330769230769227,/home/senior/senior/Sample_Projects/round_2/31723/scipy/misc/tests/test_common.py
31723,25.26619429851844,1,92,0.40976086956521734,/home/senior/senior/Sample_Projects/round_2/31723/scipy/misc/tests/test_doccer.py
31723,0.0,1,33,0.0,/home/senior/senior/Sample_Projects/round_2/31723/scipy/misc/doccer.py
31723,3552.3329333328024,43,277,0.13609386281588445,/home/senior/senior/Sample_Projects/round_2/31723/scipy/integrate/_ivp/bdf.py
31723,1195.3633580596281,18,79,0.23859493670886076,/home/senior/senior/Sample_Projects/round_2/31723/scipy/misc/common.py
31723,4.754887502163469,2,31,0.0,/home/senior/senior/Sample_Projects/round_2/31723/scipy/setup.py
31723,101.02330072391149,8,42,0.1495952380952381,/home/senior/senior/Sample_Projects/round_2/31723/scipy/conftest.py
31723,112.58797503894243,23,45,1.6754666666666667,/home/senior/senior/Sample_Projects/round_2/31723/benchmarks/benchmarks/tests/test_go_benchmark_functions.py
31723,6496.961322616504,39,204,0.030799019607843134,/home/senior/senior/Sample_Projects/round_2/31723/benchmarks/benchmarks/go_benchmark_functions/go_funcs_P.py
31723,4768.0,37,186,0.03377956989247312,/home/senior/senior/Sample_Projects/round_2/31723/benchmarks/benchmarks/go_benchmark_functions/go_funcs_C.py
31723,434.1011803761678,3,19,0.33068421052631575,/home/senior/senior/Sample_Projects/round_2/31723/benchmarks/benchmarks/go_benchmark_functions/go_funcs_O.py
31723,1376.463658852304,18,79,0.07953164556962025,/home/senior/senior/Sample_Projects/round_2/31723/benchmarks/benchmarks/go_benchmark_functions/go_funcs_A.py
31723,1953.4235466429209,12,64,0.09817187499999999,/home/senior/senior/Sample_Projects/round_2/31723/benchmarks/benchmarks/go_benchmark_functions/go_funcs_G.py
31723,2092.1850534494606,15,101,0.06220792079207921,/home/senior/senior/Sample_Projects/round_2/31723/benchmarks/benchmarks/go_benchmark_functions/go_funcs_H.py
31723,888.7695748225497,8,43,0.14611627906976743,/home/senior/senior/Sample_Projects/round_2/31723/benchmarks/benchmarks/go_benchmark_functions/go_funcs_K.py
31723,2248.199599748414,15,75,0.08377333333333334,/home/senior/senior/Sample_Projects/round_2/31723/benchmarks/benchmarks/go_benchmark_functions/go_funcs_X.py
31723,846.2151767101835,9,39,0.16110256410256407,/home/senior/senior/Sample_Projects/round_2/31723/benchmarks/benchmarks/go_benchmark_functions/go_funcs_Q.py
31723,1424.8572573088843,13,64,0.09817187499999999,/home/senior/senior/Sample_Projects/round_2/31723/benchmarks/benchmarks/go_benchmark_functions/go_funcs_Z.py
31723,6469.359850597369,39,176,0.03569886363636364,/home/senior/senior/Sample_Projects/round_2/31723/benchmarks/benchmarks/go_benchmark_functions/go_funcs_D.py
31723,4.754887502163469,2,10,0.0,/home/senior/senior/Sample_Projects/round_2/31723/scipy/misc/setup.py
31723,15.509775004326936,1,22,0.0,/home/senior/senior/Sample_Projects/round_2/31723/scipy/integrate/_ivp/tests/test_rk.py
31723,9677.567909065494,46,743,0.2452314939434724,/home/senior/senior/Sample_Projects/round_2/31723/scipy/integrate/_ivp/tests/test_ivp.py
31723,1248.2725655828801,22,118,0.3194745762711865,/home/senior/senior/Sample_Projects/round_2/31723/scipy/integrate/tests/test__quad_vec.py
31723,992.0735109300175,55,283,1.3986890459363956,/home/senior/senior/Sample_Projects/round_2/31723/scipy/_lib/decorator.py
31723,0.0,1,18,0.0,/home/senior/senior/Sample_Projects/round_2/31723/scipy/_lib/deprecation.py
31723,15.509775004326936,2,38,0.16534210526315787,/home/senior/senior/Sample_Projects/round_2/31723/scipy/_lib/setup.py
31723,4.754887502163469,7,16,0.39268749999999997,/home/senior/senior/Sample_Projects/round_2/31723/scipy/_lib/uarray.py
31723,3705.362696909481,32,230,0.38244347826086955,/home/senior/senior/Sample_Projects/round_2/31723/scipy/cluster/tests/test_vq.py
31723,2846.8621920751657,163,748,1.2011617647058823,/home/senior/senior/Sample_Projects/round_2/31723/scipy/cluster/tests/test_hierarchy.py
31723,18.575424759098897,1,126,0.09973015873015872,/home/senior/senior/Sample_Projects/round_2/31723/scipy/cluster/tests/hierarchy_test_data.py
31723,9518.94514849793,243,977,0.8102947799385875,/home/senior/senior/Sample_Projects/round_2/31723/scipy/cluster/hierarchy.py
31723,925.3821246771021,37,167,0.5267185628742515,/home/senior/senior/Sample_Projects/round_2/31723/scipy/cluster/vq.py
31723,4.754887502163469,2,19,0.0,/home/senior/senior/Sample_Projects/round_2/31723/scipy/cluster/setup.py
31723,238.04106876125107,74,874,0.06469908466819221,/home/senior/senior/Sample_Projects/round_2/31723/scipy/ndimage/tests/test_measurements.py
31723,13.931568569324174,3,27,2.327037037037037,/home/senior/senior/Sample_Projects/round_2/31723/scipy/ndimage/tests/test_morphology.py
31723,120.40465370320703,4,46,1.7756304347826086,/home/senior/senior/Sample_Projects/round_2/31723/scipy/ndimage/tests/test_datatypes.py
31723,327.8856177582995,8,49,0.0,/home/senior/senior/Sample_Projects/round_2/31723/scipy/ndimage/tests/test_splines.py
31723,28.529325012980813,3,32,0.19634374999999998,/home/senior/senior/Sample_Projects/round_2/31723/scipy/ndimage/tests/test_regression.py
31723,7993.729627320559,593,4230,0.09803262411347517,/home/senior/senior/Sample_Projects/round_2/31723/scipy/ndimage/tests/test_ndimage.py
31723,85.83671966625714,4,77,0.0,/home/senior/senior/Sample_Projects/round_2/31723/scipy/ndimage/tests/test_c_api.py
31723,5634.121808173028,15,438,0.08606849315068492,/home/senior/senior/Sample_Projects/round_2/31723/scipy/integrate/tests/test_bvp.py
31723,1707.6372677867655,23,180,0.5235833333333332,/home/senior/senior/Sample_Projects/round_2/31723/scipy/integrate/tests/test_quadrature.py
31723,510.51828077743465,20,139,0.8588273381294964,/home/senior/senior/Sample_Projects/round_2/31723/scipy/integrate/tests/test_banded_ode_solvers.py
31723,3771.5868141052633,85,551,0.8324119782214155,/home/senior/senior/Sample_Projects/round_2/31723/scipy/integrate/tests/test_integrate.py
31723,5981.090122971301,50,303,0.4354554455445545,/home/senior/senior/Sample_Projects/round_2/31723/scipy/integrate/tests/test_quadpack.py
31723,87.56916320732489,3,52,0.48330769230769227,/home/senior/senior/Sample_Projects/round_2/31723/scipy/integrate/tests/test_odeint_jac.py
31723,567.0641250017568,11,42,0.2991904761904762,/home/senior/senior/Sample_Projects/round_2/31723/benchmarks/benchmarks/go_benchmark_functions/go_funcs_N.py
31723,28.529325012980813,3,42,0.1495952380952381,/home/senior/senior/Sample_Projects/round_2/31723/scipy/ndimage/setup.py
31723,171.8953543301665,15,74,2.4622567567567564,/home/senior/senior/Sample_Projects/round_2/31723/scipy/ndimage/fourier.py
31723,4015.445768071238,125,499,0.49105611222444884,/home/senior/senior/Sample_Projects/round_2/31723/scipy/ndimage/filters.py
31723,3152.489875463696,83,357,1.302358543417367,/home/senior/senior/Sample_Projects/round_2/31723/scipy/ndimage/measurements.py
31723,3860.0620495948706,140,499,0.42810020040080154,/home/senior/senior/Sample_Projects/round_2/31723/scipy/ndimage/morphology.py
31723,25.26619429851844,7,39,0.0,/home/senior/senior/Sample_Projects/round_2/31723/scipy/ndimage/utils/generate_label_testvectors.py
31723,1064.649824127363,15,308,1.040366883116883,/home/senior/senior/Sample_Projects/round_2/31723/scipy/ndimage/tests/test_filters.py
31723,2290.9262086304484,81,256,0.9080898437499999,/home/senior/senior/Sample_Projects/round_2/31723/scipy/ndimage/interpolation.py
31723,3795.3985526653505,21,127,0.04947244094488188,/home/senior/senior/Sample_Projects/round_2/31723/benchmarks/benchmarks/go_benchmark_functions/go_funcs_T.py
31723,2281.370565422389,19,92,0.06829347826086955,/home/senior/senior/Sample_Projects/round_2/31723/benchmarks/benchmarks/go_benchmark_functions/go_funcs_W.py
31723,7548.205452709268,79,391,0.5784859335038363,/home/senior/senior/Sample_Projects/round_2/31723/benchmarks/benchmarks/go_benchmark_functions/go_funcs_S.py
31723,298.2723456270787,17,81,0.07756790123456789,/home/senior/senior/Sample_Projects/round_2/31723/benchmarks/benchmarks/common.py
31723,618.6054893471386,33,215,0.11689302325581395,/home/senior/senior/Sample_Projects/round_2/31723/benchmarks/benchmarks/optimize_linprog.py
31723,1053.594000115385,21,98,0.12822448979591836,/home/senior/senior/Sample_Projects/round_2/31723/benchmarks/benchmarks/optimize_zeros.py
31723,8435.389661100808,34,196,0.6411224489795918,/home/senior/senior/Sample_Projects/round_2/31723/benchmarks/benchmarks/test_functions.py
31723,79.95445336320968,6,54,0.0,/home/senior/senior/Sample_Projects/round_2/31723/benchmarks/benchmarks/cython_special.py
31723,155.11451069865606,16,90,0.20943333333333333,/home/senior/senior/Sample_Projects/round_2/31723/benchmarks/benchmarks/io_matlab.py
31723,181.11039140121426,40,215,0.2630093023255814,/home/senior/senior/Sample_Projects/round_2/31723/benchmarks/benchmarks/spatial.py
31723,1124.5963320728672,66,266,0.2125827067669173,/home/senior/senior/Sample_Projects/round_2/31723/benchmarks/benchmarks/fft_basic.py
31723,103.72627427729671,13,41,0.9194634146341463,/home/senior/senior/Sample_Projects/round_2/31723/benchmarks/benchmarks/sparse_linalg_onenormest.py
31723,210.83123629338053,36,113,0.2780088495575221,/home/senior/senior/Sample_Projects/round_2/31723/benchmarks/benchmarks/stats.py
31723,1268.5968093549582,54,179,0.35100558659217873,/home/senior/senior/Sample_Projects/round_2/31723/benchmarks/benchmarks/linalg.py
31723,216.9089471324135,14,56,0.8975714285714285,/home/senior/senior/Sample_Projects/round_2/31723/benchmarks/run.py
31723,33.68825906469125,1,30,0.8377333333333333,/home/senior/senior/Sample_Projects/round_2/31723/doc/source/tutorial/stats/plots/kde_plot3.py
31723,31.699250014423125,2,29,1.2999310344827586,/home/senior/senior/Sample_Projects/round_2/31723/doc/source/tutorial/stats/plots/mgc_plot2.py
31723,64.72503367497926,1,15,0.41886666666666666,/home/senior/senior/Sample_Projects/round_2/31723/doc/source/tutorial/stats/plots/kde_plot2.py
31723,71.69925001442313,2,30,1.2566,/home/senior/senior/Sample_Projects/round_2/31723/doc/source/tutorial/stats/plots/mgc_plot4.py
31723,36.541209043760986,1,17,0.3695882352941176,/home/senior/senior/Sample_Projects/round_2/31723/doc/source/tutorial/stats/plots/mgc_plot1.py
31723,950.1380174690097,51,352,1.0352670454545454,/home/senior/senior/Sample_Projects/round_2/31723/setup.py
31723,1509.8304411972547,64,451,0.9333946784922394,/home/senior/senior/Sample_Projects/round_2/31723/pavement.py
31723,66.60791492653966,8,28,0.6731785714285713,/home/senior/senior/Sample_Projects/round_2/31723/doc/postprocess.py
31723,454.9654211048499,25,319,2.422598746081505,/home/senior/senior/Sample_Projects/round_2/31723/doc/source/conf.py
31723,437.4667510623557,4,105,0.41886666666666666,/home/senior/senior/Sample_Projects/round_2/31723/doc/source/scipyoptdoc.py
31723,53.1508495181978,3,26,0.24165384615384614,/home/senior/senior/Sample_Projects/round_2/31723/doc/source/doi_role.py
31723,312.1143675543732,11,67,0.0,/home/senior/senior/Sample_Projects/round_2/31723/benchmarks/benchmarks/signal_filtering.py
31723,178.81353752812512,1,20,0.0,/home/senior/senior/Sample_Projects/round_2/31723/doc/source/tutorial/examples/optimize_global_2.py
31723,315.0,1,40,1.2566,/home/senior/senior/Sample_Projects/round_2/31723/doc/source/tutorial/examples/normdiscr_plot2.py
31723,292.2975823128257,2,39,0.6444102564102563,/home/senior/senior/Sample_Projects/round_2/31723/doc/source/tutorial/examples/optimize_global_1.py
31723,1307.9175296572919,3,59,1.064915254237288,/home/senior/senior/Sample_Projects/round_2/31723/doc/source/tutorial/examples/newton_krylov_preconditioning.py
31723,157.89111045234063,1,31,0.0,/home/senior/senior/Sample_Projects/round_2/31723/doc/source/tutorial/stats/plots/kde_plot4.py
31723,75.28421251514429,1,18,0.3490555555555555,/home/senior/senior/Sample_Projects/round_2/31723/doc/source/tutorial/stats/plots/mgc_plot3.py
31723,12.0,1,25,0.0,/home/senior/senior/Sample_Projects/round_2/31723/doc/source/tutorial/stats/plots/kde_plot5.py
31723,259.5971657911106,1,37,1.3584864864864863,/home/senior/senior/Sample_Projects/round_2/31723/doc/source/tutorial/examples/normdiscr_plot1.py
31723,437.94736784098626,16,103,0.42699999999999994,/home/senior/senior/Sample_Projects/round_2/31723/scipy/_lib/doccer.py
31723,0.0,10,38,0.0,/home/senior/senior/Sample_Projects/round_2/31723/benchmarks/benchmarks/cluster.py
31723,57.058650025961626,8,48,1.1780625,/home/senior/senior/Sample_Projects/round_2/31723/benchmarks/benchmarks/sparse_linalg_expm.py
31723,375.08064232528443,5,33,0.1903939393939394,/home/senior/senior/Sample_Projects/round_2/31723/benchmarks/benchmarks/go_benchmark_functions/go_funcs_J.py
31723,3280.2730128408575,22,100,0.18849,/home/senior/senior/Sample_Projects/round_2/31723/benchmarks/benchmarks/go_benchmark_functions/go_funcs_L.py
31723,6732.945529639104,42,212,0.02963679245283019,/home/senior/senior/Sample_Projects/round_2/31723/benchmarks/benchmarks/go_benchmark_functions/go_funcs_M.py
31723,7487.645973137694,42,206,0.030499999999999996,/home/senior/senior/Sample_Projects/round_2/31723/benchmarks/benchmarks/go_benchmark_functions/go_funcs_B.py
31723,2829.7339149522422,25,125,0.100528,/home/senior/senior/Sample_Projects/round_2/31723/benchmarks/benchmarks/go_benchmark_functions/go_funcs_R.py
31723,2022.4419301521948,17,105,0.05983809523809524,/home/senior/senior/Sample_Projects/round_2/31723/benchmarks/benchmarks/go_benchmark_functions/go_funcs_E.py
31723,1510.0886049538567,12,46,0.1365869565217391,/home/senior/senior/Sample_Projects/round_2/31723/benchmarks/benchmarks/go_benchmark_functions/go_funcs_U.py
31723,66.60791492653966,22,57,0.33068421052631575,/home/senior/senior/Sample_Projects/round_2/31723/benchmarks/benchmarks/go_benchmark_functions/go_benchmark.py
31723,345.1083150578407,3,13,0.48330769230769227,/home/senior/senior/Sample_Projects/round_2/31723/benchmarks/benchmarks/go_benchmark_functions/go_funcs_F.py
31723,94.01164534875782,4,12,0.5235833333333332,/home/senior/senior/Sample_Projects/round_2/31723/benchmarks/benchmarks/go_benchmark_functions/go_funcs_I.py
31723,488.8038189476321,7,25,0.25132,/home/senior/senior/Sample_Projects/round_2/31723/benchmarks/benchmarks/go_benchmark_functions/go_funcs_V.py
31723,180.94247824228052,7,22,0.2855909090909091,/home/senior/senior/Sample_Projects/round_2/31723/benchmarks/benchmarks/go_benchmark_functions/go_funcs_Y.py
31723,2767.034898446875,41,194,0.1295463917525773,/home/senior/senior/Sample_Projects/round_2/31723/benchmarks/benchmarks/go_benchmark_functions/go_funcs_univariate.py
31723,4.754887502163469,4,27,0.4654074074074073,/home/senior/senior/Sample_Projects/round_2/31723/benchmarks/benchmarks/sparse_csgraph_djisktra.py
31723,582.0,68,188,0.2673617021276596,/home/senior/senior/Sample_Projects/round_2/31723/benchmarks/benchmarks/signal.py
31723,98.09910819000817,6,32,0.19634374999999998,/home/senior/senior/Sample_Projects/round_2/31723/benchmarks/benchmarks/linalg_solve_toeplitz.py
31723,12.0,4,18,1.0471666666666664,/home/senior/senior/Sample_Projects/round_2/31723/benchmarks/benchmarks/sparse_csgraph_matching.py
31723,885.6490218068348,26,161,0.03902484472049689,/home/senior/senior/Sample_Projects/round_2/31723/benchmarks/benchmarks/interpolate.py
31723,850.6951110911663,72,320,0.294515625,/home/senior/senior/Sample_Projects/round_2/31723/benchmarks/benchmarks/sparse.py
31723,0.0,4,23,0.0,/home/senior/senior/Sample_Projects/round_2/31723/benchmarks/benchmarks/blas_lapack.py
31723,24.0,5,25,0.0,/home/senior/senior/Sample_Projects/round_2/31723/benchmarks/benchmarks/sparse_csgraph.py
31723,670.3224360260103,21,93,0.0,/home/senior/senior/Sample_Projects/round_2/31723/benchmarks/benchmarks/integrate.py
31723,0.0,8,30,0.0,/home/senior/senior/Sample_Projects/round_2/31723/benchmarks/benchmarks/peak_finding.py
31723,1218.4527013435786,17,80,0.0,/home/senior/senior/Sample_Projects/round_2/31723/benchmarks/benchmarks/fftpack_pseudo_diffs.py
31723,491.01548851040104,12,82,0.45973170731707313,/home/senior/senior/Sample_Projects/round_2/31723/benchmarks/benchmarks/sparse_linalg_lobpcg.py
31723,351.03493604627346,18,67,0.18755223880597013,/home/senior/senior/Sample_Projects/round_2/31723/benchmarks/benchmarks/sparse_linalg_solve.py
31723,43.01955000865388,6,25,0.0,/home/senior/senior/Sample_Projects/round_2/31723/benchmarks/benchmarks/linalg_sqrtm.py
31723,15.509775004326936,4,17,0.3695882352941176,/home/senior/senior/Sample_Projects/round_2/31723/benchmarks/benchmarks/sparse_csgraph_maxflow.py
31723,1204.736809810293,106,386,0.3580984455958549,/home/senior/senior/Sample_Projects/round_2/31723/benchmarks/benchmarks/optimize.py
31723,27.0,15,50,0.12566,/home/senior/senior/Sample_Projects/round_2/31723/benchmarks/benchmarks/special.py
31723,5952.678016597026,41,296,0.0,/home/senior/senior/Sample_Projects/round_2/31723/benchmarks/benchmarks/lsq_problems.py
31723,72.33974351909447,6,35,0.0,/home/senior/senior/Sample_Projects/round_2/31723/benchmarks/benchmarks/optimize_lap.py
31723,3378.8257464446833,83,579,0.11936614853195164,/home/senior/senior/Sample_Projects/round_2/31723/scipy/io/tests/test_mmio.py
31723,55.506595772116384,6,29,0.0,/home/senior/senior/Sample_Projects/round_2/31723/scipy/_lib/_uarray/setup.py
31723,0.0,2,45,0.27924444444444446,/home/senior/senior/Sample_Projects/round_2/31723/scipy/_lib/tests/test_import_cycles.py
31723,763.1394821852551,55,363,0.3461707988980716,/home/senior/senior/Sample_Projects/round_2/31723/scipy/sparse/tests/test_construct.py
31723,38.03910001730775,2,60,0.6283,/home/senior/senior/Sample_Projects/round_2/31723/scipy/sparse/tests/test_matrix_io.py
31723,700.0582267437891,44,216,0.08726388888888888,/home/senior/senior/Sample_Projects/round_2/31723/scipy/sparse/linalg/tests/test_expm_multiply.py
31723,1051.7388652143184,23,174,1.227712643678161,/home/senior/senior/Sample_Projects/round_2/31723/scipy/sparse/linalg/tests/test_onenormest.py
31723,280.4608412755348,23,104,0.1812403846153846,/home/senior/senior/Sample_Projects/round_2/31723/scipy/sparse/linalg/tests/test_norm.py
31723,168.25742227201613,15,160,0.0785375,/home/senior/senior/Sample_Projects/round_2/31723/scipy/sparse/linalg/tests/test_pydata_sparse.py
31723,3053.359318498753,55,411,1.3452652068126518,/home/senior/senior/Sample_Projects/round_2/31723/scipy/sparse/linalg/tests/test_matfuncs.py
31723,3000.569813149553,32,336,0.1495952380952381,/home/senior/senior/Sample_Projects/round_2/31723/scipy/sparse/linalg/tests/test_interface.py
31723,642.0,5,99,0.8885050505050504,/home/senior/senior/Sample_Projects/round_2/31723/scipy/sparse/linalg/isolve/tests/test_lsqr.py
31723,0.0,1,6,0.0,/home/senior/senior/Sample_Projects/round_2/31723/scipy/sparse/linalg/isolve/tests/test_utils.py
31723,791.0599736929768,22,140,0.5834214285714286,/home/senior/senior/Sample_Projects/round_2/31723/scipy/sparse/linalg/isolve/tests/test_lsmr.py
31723,564.7337327387368,18,115,0.6009826086956521,/home/senior/senior/Sample_Projects/round_2/31723/scipy/sparse/linalg/isolve/tests/test_gcrotmk.py
31723,4537.5086349583435,54,492,0.6768272357723577,/home/senior/senior/Sample_Projects/round_2/31723/scipy/sparse/linalg/isolve/tests/test_iterative.py
31723,693.3644711259903,15,146,0.6024794520547945,/home/senior/senior/Sample_Projects/round_2/31723/scipy/sparse/linalg/isolve/tests/test_lgmres.py
31723,804.5314840143678,33,219,1.0615114155251142,/home/senior/senior/Sample_Projects/round_2/31723/scipy/sparse/tests/test_sparsetools.py
31723,225.68845274557853,4,76,0.24801315789473682,/home/senior/senior/Sample_Projects/round_2/31723/scipy/sparse/linalg/isolve/tests/test_minres.py
31723,496.31280013846197,1,65,3.383153846153846,/home/senior/senior/Sample_Projects/round_2/31723/scipy/sparse/linalg/isolve/iterative/test.py
31723,499.432523296954,20,84,1.2715595238095236,/home/senior/senior/Sample_Projects/round_2/31723/scipy/sparse/linalg/isolve/lgmres.py
31723,3133.4792117523148,36,200,1.2566,/home/senior/senior/Sample_Projects/round_2/31723/scipy/sparse/linalg/isolve/lsmr.py
31723,288.6360132393972,17,69,0.2731739130434782,/home/senior/senior/Sample_Projects/round_2/31723/scipy/sparse/linalg/isolve/utils.py
31723,6903.876567316026,130,510,0.34494901960784313,/home/senior/senior/Sample_Projects/round_2/31723/scipy/sparse/linalg/isolve/iterative.py
31723,39.863137138648355,3,30,0.8377333333333333,/home/senior/senior/Sample_Projects/round_2/31723/scipy/sparse/linalg/isolve/setup.py
31723,3126.7629750501105,42,216,1.483486111111111,/home/senior/senior/Sample_Projects/round_2/31723/scipy/sparse/linalg/isolve/minres.py
31723,3573.691929127081,36,211,0.9826492890995261,/home/senior/senior/Sample_Projects/round_2/31723/scipy/sparse/linalg/isolve/lsqr.py
31723,1762.3434240195081,7,248,0.9880524193548387,/home/senior/senior/Sample_Projects/round_2/31723/scipy/sparse/linalg/eigen/lobpcg/tests/test_lobpcg.py
31723,2763.755663049211,71,374,0.8231737967914438,/home/senior/senior/Sample_Projects/round_2/31723/scipy/sparse/linalg/eigen/lobpcg/lobpcg.py
31723,4.754887502163469,2,9,0.0,/home/senior/senior/Sample_Projects/round_2/31723/scipy/sparse/linalg/eigen/lobpcg/setup.py
31723,3173.3717665586532,125,707,0.8620240452616689,/home/senior/senior/Sample_Projects/round_2/31723/scipy/sparse/linalg/eigen/arpack/tests/test_arpack.py
31723,9940.583348714832,223,1061,1.166589066918002,/home/senior/senior/Sample_Projects/round_2/31723/scipy/sparse/linalg/eigen/arpack/arpack.py
31723,15.509775004326936,2,26,0.24165384615384614,/home/senior/senior/Sample_Projects/round_2/31723/scipy/sparse/linalg/eigen/arpack/setup.py
31723,458.59225596553296,4,45,0.41886666666666666,/home/senior/senior/Sample_Projects/round_2/31723/scipy/sparse/linalg/isolve/tests/demo_lgmres.py
31723,114.71363126237385,12,112,0.7292767857142857,/home/senior/senior/Sample_Projects/round_2/31723/scipy/sparse/tests/test_sputils.py
31723,33.68825906469125,10,35,0.0,/home/senior/senior/Sample_Projects/round_2/31723/scipy/sparse/tests/test_extract.py
31723,183.31714900750262,8,59,0.1064915254237288,/home/senior/senior/Sample_Projects/round_2/31723/scipy/sparse/tests/test_csc.py
31723,221.95334125177195,14,176,0.4640852272727273,/home/senior/senior/Sample_Projects/round_2/31723/scipy/io/tests/test_fortran.py
31723,0.0,5,51,0.0,/home/senior/senior/Sample_Projects/round_2/31723/scipy/io/harwell_boeing/tests/test_hb.py
31723,6.339850002884625,18,55,0.0,/home/senior/senior/Sample_Projects/round_2/31723/scipy/io/harwell_boeing/tests/test_fortran_format.py
31723,2198.174367391821,61,333,0.4339609609609609,/home/senior/senior/Sample_Projects/round_2/31723/scipy/io/harwell_boeing/hb.py
31723,4.754887502163469,2,9,0.0,/home/senior/senior/Sample_Projects/round_2/31723/scipy/io/harwell_boeing/setup.py
31723,441.88495648456103,40,299,0.2731739130434782,/home/senior/senior/Sample_Projects/round_2/31723/scipy/io/arff/tests/test_arffread.py
31723,2000.9838632604683,105,417,1.3259088729016786,/home/senior/senior/Sample_Projects/round_2/31723/scipy/io/arff/arffread.py
31723,4.754887502163469,2,9,0.0,/home/senior/senior/Sample_Projects/round_2/31723/scipy/io/arff/setup.py
31723,1561.6057110911677,40,922,1.0426236442516268,/home/senior/senior/Sample_Projects/round_2/31723/scipy/io/matlab/tests/test_mio.py
31723,177.87213211613133,10,142,0.707943661971831,/home/senior/senior/Sample_Projects/round_2/31723/scipy/io/matlab/tests/test_mio5_utils.py
31723,83.39850002884624,6,39,0.48330769230769227,/home/senior/senior/Sample_Projects/round_2/31723/scipy/io/matlab/tests/test_mio_funcs.py
31723,0.0,2,28,1.795142857142857,/home/senior/senior/Sample_Projects/round_2/31723/scipy/io/matlab/tests/test_mio_utils.py
31723,0.0,1,16,2.7488124999999997,/home/senior/senior/Sample_Projects/round_2/31723/scipy/io/matlab/tests/test_pathological.py
31723,149.27754454988144,4,22,0.0,/home/senior/senior/Sample_Projects/round_2/31723/scipy/io/matlab/tests/test_byteordercodes.py
31723,714.7337620686308,14,170,0.29567058823529413,/home/senior/senior/Sample_Projects/round_2/31723/scipy/io/matlab/tests/test_streams.py
31723,0.0,1,19,4.629578947368421,/home/senior/senior/Sample_Projects/round_2/31723/scipy/io/matlab/tests/test_miobase.py
31723,58.60335893412778,11,174,0.722183908045977,/home/senior/senior/Sample_Projects/round_2/31723/scipy/io/matlab/mio5_params.py
31723,327.6949375694594,13,94,0.0668404255319149,/home/senior/senior/Sample_Projects/round_2/31723/scipy/sparse/tests/test_csr.py
31723,29324.141162928525,470,3531,0.7099736618521665,/home/senior/senior/Sample_Projects/round_2/31723/scipy/sparse/tests/test_base.py
31723,129.65784284662087,12,81,0.15513580246913578,/home/senior/senior/Sample_Projects/round_2/31723/scipy/sparse/tests/test_spfuncs.py
31723,3460.5432346889984,130,499,0.7932444889779557,/home/senior/senior/Sample_Projects/round_2/31723/scipy/io/idl.py
31723,4.754887502163469,2,14,0.0,/home/senior/senior/Sample_Projects/round_2/31723/scipy/io/setup.py
31723,4160.526564393035,177,512,0.76083203125,/home/senior/senior/Sample_Projects/round_2/31723/scipy/io/mmio.py
31723,4.754887502163469,2,10,0.0,/home/senior/senior/Sample_Projects/round_2/31723/scipy/sparse/linalg/eigen/setup.py
31723,1890.8156927143189,50,215,0.8182511627906977,/home/senior/senior/Sample_Projects/round_2/31723/scipy/io/wavfile.py
31723,147.1612434150308,10,24,0.0,/home/senior/senior/Sample_Projects/round_2/31723/scipy/io/matlab/byteordercodes.py
31723,1847.7849116321645,83,362,0.46862154696132596,/home/senior/senior/Sample_Projects/round_2/31723/scipy/io/matlab/mio4.py
31723,4.754887502163469,2,12,0.0,/home/senior/senior/Sample_Projects/round_2/31723/scipy/io/matlab/setup.py
31723,1942.6082524165183,107,452,1.167637168141593,/home/senior/senior/Sample_Projects/round_2/31723/scipy/io/matlab/mio5.py
31723,341.85467954623215,21,170,0.33262941176470584,/home/senior/senior/Sample_Projects/round_2/31723/scipy/io/matlab/miobase.py
31723,164.51539013493823,16,79,0.1590632911392405,/home/senior/senior/Sample_Projects/round_2/31723/scipy/io/matlab/mio.py
31723,3045.0548940747285,160,552,1.0585489130434782,/home/senior/senior/Sample_Projects/round_2/31723/scipy/io/netcdf.py
31723,1722.2534704238326,82,550,0.5826054545454545,/home/senior/senior/Sample_Projects/round_2/31723/scipy/sparse/linalg/dsolve/tests/test_linsolve.py
31723,27.0,3,39,0.32220512820512814,/home/senior/senior/Sample_Projects/round_2/31723/scipy/sparse/linalg/dsolve/setup.py
31723,1029.070449713389,62,248,0.6587016129032258,/home/senior/senior/Sample_Projects/round_2/31723/scipy/sparse/linalg/dsolve/linsolve.py
31723,1251.9264706704287,38,151,2.0804635761589405,/home/senior/senior/Sample_Projects/round_2/31723/scipy/signal/tests/test_upfirdn.py
31723,65881.84716124533,284,2989,0.7315102040816327,/home/senior/senior/Sample_Projects/round_2/31723/scipy/signal/tests/test_filter_design.py
31723,3086.445225861061,72,556,0.7006223021582734,/home/senior/senior/Sample_Projects/round_2/31723/scipy/signal/tests/test_peak_finding.py
31723,1344.0482006115406,7,184,1.1951358695652174,/home/senior/senior/Sample_Projects/round_2/31723/scipy/signal/tests/test_savitzky_golay.py
31723,9060.384002976209,99,813,1.6383714637146372,/home/senior/senior/Sample_Projects/round_2/31723/scipy/signal/tests/test_ltisys.py
31723,887.2057069089892,14,115,0.5463478260869564,/home/senior/senior/Sample_Projects/round_2/31723/scipy/signal/tests/test_wavelets.py
31723,5101.164213135787,43,428,1.409271028037383,/home/senior/senior/Sample_Projects/round_2/31723/scipy/signal/tests/test_fir_filter_design.py
31723,3584.9888228614886,46,510,0.43118627450980396,/home/senior/senior/Sample_Projects/round_2/31723/scipy/signal/tests/test_windows.py
31723,1556.4924507039623,37,283,0.15540989399293284,/home/senior/senior/Sample_Projects/round_2/31723/scipy/signal/tests/test_waveforms.py
31723,3658.570418981603,11,190,0.5952315789473684,/home/senior/senior/Sample_Projects/round_2/31723/scipy/signal/tests/test_bsplines.py
31723,208.9735285398626,9,46,2.048804347826087,/home/senior/senior/Sample_Projects/round_2/31723/scipy/signal/tests/test_max_len_seq.py
31723,4562.984264873272,137,1164,0.5613676975945017,/home/senior/senior/Sample_Projects/round_2/31723/scipy/signal/tests/test_spectral.py
31723,6951.540987701079,61,484,0.6490702479338843,/home/senior/senior/Sample_Projects/round_2/31723/scipy/signal/windows/windows.py
31723,0.0,1,6,0.0,/home/senior/senior/Sample_Projects/round_2/31723/scipy/signal/windows/setup.py
31723,3655.0607251752995,25,142,0.8849295774647887,/home/senior/senior/Sample_Projects/round_2/31723/scipy/signal/wavelets.py
31723,8082.708498153075,288,1132,1.5152464664310954,/home/senior/senior/Sample_Projects/round_2/31723/scipy/signal/ltisys.py
31723,1944.8607907311844,42,177,0.8874293785310735,/home/senior/senior/Sample_Projects/round_2/31723/scipy/signal/lti_conversion.py
31723,2.0,7,71,1.2389014084507042,/home/senior/senior/Sample_Projects/round_2/31723/scipy/_lib/tests/test__gcutils.py
31723,18.094737505048094,4,34,0.9239705882352941,/home/senior/senior/Sample_Projects/round_2/31723/scipy/_lib/tests/test__threadsafety.py
31723,404.423806708407,24,139,0.8588273381294964,/home/senior/senior/Sample_Projects/round_2/31723/scipy/_lib/tests/test__util.py
31723,387.4149792439494,31,43,0.4383488372093023,/home/senior/senior/Sample_Projects/round_2/31723/scipy/_lib/tests/test__pep440.py
31723,6.339850002884625,1,31,0.40535483870967737,/home/senior/senior/Sample_Projects/round_2/31723/scipy/_lib/tests/test_tmpdirs.py
31723,348.24088030017543,26,81,0.5429753086419752,/home/senior/senior/Sample_Projects/round_2/31723/scipy/_lib/tests/test_warnings.py
31723,1428.429080801566,19,285,0.8377333333333333,/home/senior/senior/Sample_Projects/round_2/31723/scipy/signal/tests/test_cont2discrete.py
31723,129.65784284662087,7,27,0.23270370370370366,/home/senior/senior/Sample_Projects/round_2/31723/scipy/_lib/tests/test__testutils.py
31723,18549.648509555864,332,1273,1.2536386488609583,/home/senior/senior/Sample_Projects/round_2/31723/scipy/signal/signaltools.py
31723,4.754887502163469,2,31,0.0,/home/senior/senior/Sample_Projects/round_2/31723/scipy/signal/setup.py
31723,6737.431030666344,132,444,0.721695945945946,/home/senior/senior/Sample_Projects/round_2/31723/scipy/signal/spectral.py
31723,6400.682705770552,26,221,0.31272850678733033,/home/senior/senior/Sample_Projects/round_2/31723/scipy/signal/bsplines.py
31723,3620.474614241779,30,135,1.4427629629629628,/home/senior/senior/Sample_Projects/round_2/31723/scipy/signal/waveforms.py
31723,33321.280018935606,275,1289,0.7993886733902249,/home/senior/senior/Sample_Projects/round_2/31723/scipy/signal/filter_design.py
31723,6314.408961197483,90,605,0.9865867768595041,/home/senior/senior/Sample_Projects/round_2/31723/scipy/signal/fir_filter_design.py
31723,210.99629561116632,13,142,0.44246478873239437,/home/senior/senior/Sample_Projects/round_2/31723/scipy/_lib/tests/test_ccallback.py
31723,740.3910001730775,18,58,0.6499655172413793,/home/senior/senior/Sample_Projects/round_2/31723/scipy/signal/tests/mpsig.py
31723,28304.775792131186,312,2513,0.5850465578989256,/home/senior/senior/Sample_Projects/round_2/31723/scipy/signal/tests/test_signaltools.py
31723,1758.9323516559944,150,385,0.06527792207792207,/home/senior/senior/Sample_Projects/round_2/31723/scipy/sparse/linalg/interface.py
31723,4.754887502163469,2,12,0.0,/home/senior/senior/Sample_Projects/round_2/31723/scipy/sparse/linalg/setup.py
31723,6214.932600448027,127,410,0.8428414634146342,/home/senior/senior/Sample_Projects/round_2/31723/scipy/sparse/linalg/matfuncs.py
31723,230.75303625876498,17,101,0.5598712871287128,/home/senior/senior/Sample_Projects/round_2/31723/scipy/sparse/csgraph/tests/test_graph_laplacian.py
31723,4.754887502163469,4,75,0.33509333333333335,/home/senior/senior/Sample_Projects/round_2/31723/scipy/sparse/csgraph/tests/test_connected_components.py
31723,252.17293753966362,23,244,0.206,/home/senior/senior/Sample_Projects/round_2/31723/scipy/sparse/csgraph/tests/test_shortest_path.py
31723,47.548875021634686,2,42,1.4959523809523807,/home/senior/senior/Sample_Projects/round_2/31723/scipy/sparse/csgraph/tests/test_spanning_tree.py
31723,212.66617507355792,6,88,0.9281704545454545,/home/senior/senior/Sample_Projects/round_2/31723/scipy/sparse/csgraph/tests/test_flow.py
31723,48.43204266092217,4,49,0.5128979591836734,/home/senior/senior/Sample_Projects/round_2/31723/scipy/sparse/csgraph/tests/test_conversions.py
31723,0.0,1,55,0.5711818181818182,/home/senior/senior/Sample_Projects/round_2/31723/scipy/sparse/csgraph/tests/test_reordering.py
31723,0.0,5,53,0.0,/home/senior/senior/Sample_Projects/round_2/31723/scipy/sparse/csgraph/tests/test_traversal.py
31723,320.6267456784198,9,109,0.4611376146788991,/home/senior/senior/Sample_Projects/round_2/31723/scipy/sparse/csgraph/tests/test_matching.py
31723,0.0,1,28,0.0,/home/senior/senior/Sample_Projects/round_2/31723/scipy/sparse/csgraph/setup.py
31723,705.917165923421,21,55,1.9420181818181816,/home/senior/senior/Sample_Projects/round_2/31723/scipy/sparse/spfuncs.py
31723,1241.2945601180904,113,289,0.5435121107266436,/home/senior/senior/Sample_Projects/round_2/31723/scipy/sparse/dok.py
31723,1277.35018287382,25,298,0.6325167785234899,/home/senior/senior/Sample_Projects/round_2/31723/scipy/sparse/generate_sparsetools.py
31723,3420.9063062245164,89,392,0.8655153061224488,/home/senior/senior/Sample_Projects/round_2/31723/scipy/sparse/bsr.py
31723,2055.3642239625988,35,399,1.3542305764411025,/home/senior/senior/Sample_Projects/round_2/31723/scipy/signal/tests/test_dltisys.py
31723,0.0,2,12,2.0943333333333327,/home/senior/senior/Sample_Projects/round_2/31723/scipy/sparse/sparsetools.py
31723,2041.9670179352674,83,339,0.38921238938053093,/home/senior/senior/Sample_Projects/round_2/31723/scipy/sparse/coo.py
31723,981.8336060328693,66,207,0.24282125603864732,/home/senior/senior/Sample_Projects/round_2/31723/scipy/sparse/data.py
31723,5438.109439259781,226,885,0.9442248587570622,/home/senior/senior/Sample_Projects/round_2/31723/scipy/sparse/compressed.py
31723,1542.5498071208629,75,202,0.5287673267326732,/home/senior/senior/Sample_Projects/round_2/31723/scipy/sparse/sputils.py
31723,51.69925001442312,7,83,0.0,/home/senior/senior/Sample_Projects/round_2/31723/scipy/signal/tests/test_array_tools.py
31723,1798.456687564877,61,255,0.29567058823529413,/home/senior/senior/Sample_Projects/round_2/31723/scipy/sparse/dia.py
31723,4.754887502163469,3,51,0.12319607843137254,/home/senior/senior/Sample_Projects/round_2/31723/scipy/sparse/setup.py
31723,1045.5064667408958,38,158,0.1590632911392405,/home/senior/senior/Sample_Projects/round_2/31723/scipy/sparse/csr.py
31723,57.110323830864054,1,22,0.8567727272727271,/home/senior/senior/Sample_Projects/round_2/31723/scipy/sparse/extract.py
31723,1348.561540036042,116,326,0.4432791411042944,/home/senior/senior/Sample_Projects/round_2/31723/scipy/sparse/lil.py
31723,3253.1083449959137,206,540,0.8377333333333333,/home/senior/senior/Sample_Projects/round_2/31723/scipy/sparse/base.py
31723,2409.895479825876,69,260,0.4349769230769231,/home/senior/senior/Sample_Projects/round_2/31723/scipy/sparse/construct.py
31723,250.25142037603445,26,98,0.44878571428571423,/home/senior/senior/Sample_Projects/round_2/31723/scipy/sparse/csc.py
31723,326.8106722817031,16,69,0.364231884057971,/home/senior/senior/Sample_Projects/round_2/31723/tools/refguide_summaries.py
